HUN,8,6,404
2,14,4,27,0,2,3,29,1,7,5,29
4,21,1,24,2,23,0,24,5,16,3,14
2,18,1,27,3,6,5,25,0,19,4,7
4,26,2,27,3,8,5,18,0,7,1,8
4,24,0,10,3,17,1,8,2,24,5,29
0,19,1,25,2,22,4,20,3,10,5,26
0,26,2,9,4,10,5,30,3,19,1,27
1,8,2,10,0,8,4,4,3,2,5,13
